TSP/a280.res
a280 280 2579 3 0.11
5    0    1    2    0       2578.00      0.11
5    1   -1   -1    0       2579.00      0.00
5    2   -1   -1    0       2579.00      0.00
