TSP/a280.sol
280
0 1 241 242 240 239 238 237 236 235 
234 233 232 231 230 245 244 243 246 249 
250 229 228 227 226 225 224 223 222 221 
220 219 218 217 216 215 214 213 212 211 
210 209 208 251 252 207 206 205 204 203 
202 201 200 199 143 142 141 140 139 138 
148 147 146 145 144 198 197 196 195 194 
193 192 191 190 189 188 187 186 185 184 
183 182 181 180 175 179 178 149 177 176 
150 151 155 152 154 153 128 129 130 19 
20 127 126 125 29 124 123 122 121 120 
119 118 156 157 158 159 174 160 161 162 
163 164 165 166 167 168 169 170 171 172 
173 106 105 104 103 102 101 100 99 98 
97 96 95 94 93 92 91 90 89 88 
108 107 109 110 111 87 86 83 82 81 
80 79 78 77 76 74 75 73 72 71 
70 69 66 68 67 57 56 55 54 53 
52 51 50 49 48 47 46 45 44 43 
58 62 63 64 65 84 85 115 112 113 
114 116 117 61 60 59 42 41 40 39 
38 37 36 35 34 33 32 31 30 28 
27 26 25 21 24 22 23 13 14 12 
11 10 9 7 8 6 5 4 3 276 
275 274 273 272 271 270 15 16 17 18 
131 132 133 269 268 134 135 267 266 136 
137 265 264 263 262 261 260 259 258 257 
256 253 254 255 248 247 277 278 2 279 
